# Node Net
920   1
1579   1
1281   1
1580   1
1565   2
840   2
361   2
1320   2
1571   3
1240   3
  5   3
441   3
 26   4
201   4
  7   4
 14   4
401   5
 40   5
1080   5
1160   5
161   6
  3   6
1586   6
1577   6
1573   7
1594   7
 38   7
1595   7
1583   8
 35   8
521   8
 29   8
1589   9
 41   9
241   9
1241  10
 36  10
